data/MCDM/NO_CORR/GEN_FROM_60/13_ITEMS_1000_GEN/K5013W07.KNP.mps
NAME          BLANK   
ROWS
 N  OBJROW
 L  R0000000
COLUMNS
    C0000000  OBJROW     -398.         R0000000  217.        
    C0000001  OBJROW     -985.         R0000000  896.        
    C0000002  OBJROW     -823.         R0000000  72.         
    C0000003  OBJROW     -838.         R0000000  912.        
    C0000004  OBJROW     -503.         R0000000  74.         
    C0000005  OBJROW     -144.         R0000000  361.        
    C0000006  OBJROW     -376.         R0000000  534.        
    C0000007  OBJROW     -98.          R0000000  365.        
    C0000008  OBJROW     -648.         R0000000  652.        
    C0000009  OBJROW     -631.         R0000000  502.        
    C0000010  OBJROW     -73.          R0000000  292.        
    C0000011  OBJROW     -218.         R0000000  635.        
    C0000012  OBJROW     -953.         R0000000  949.        
RHS
    RHS       R0000000  16386.      
BOUNDS
 BV BOUND     C0000000  1.          
 BV BOUND     C0000001  1.          
 BV BOUND     C0000002  1.          
 BV BOUND     C0000003  1.          
 BV BOUND     C0000004  1.          
 BV BOUND     C0000005  1.          
 BV BOUND     C0000006  1.          
 BV BOUND     C0000007  1.          
 BV BOUND     C0000008  1.          
 BV BOUND     C0000009  1.          
 BV BOUND     C0000010  1.          
 BV BOUND     C0000011  1.          
 BV BOUND     C0000012  1.          
ENDATA
