data/MCDM/NO_CORR/GEN_FROM_60/13_ITEMS_1000_GEN/K5013W07.KNP.txt
N 13
M 14
LC 13
LC 14
LC 15
LC 16
LC 17
LC 18
LC 19
LC 20
LC 21
LC 22
LC 23
LC 24
LC 25
LR 1
LR 2
LR 3
LR 4
LR 5
LR 6
LR 7
LR 8
LR 9
LR 10
LR 11
LR 12
LR 13
LR 14
LO -398
LO -985
LO -823
LO -838
LO -503
LO -144
LO -376
LO -98
LO -648
LO -631
LO -73
LO -218
LO -953
OS 1
IC 195
IC 289
IC 327
IC 38
IC 789
IC 119
IC 501
IC 813
IC 573
IC 848
IC 360
IC 814
IC 467
IB 3067
